    units real
    atom_style full
    bond_style harmonic
    angle_style harmonic
    dihedral_style fourier
    pair_style lj/cut/coul/cut 12.0
